
units lj
atom_style atomic
lattice fcc 0.8442
region box block 0 10 0 10 0 10
create_box 1 box
create_atoms 1 box
mass 1 1.0
velocity all create 2.0 87287
pair_style lj/cut 2.5
pair_coeff 1 1 1.0 1.0 2.5
fix 1 all nvt temp 1.0 1.0 0.1
thermo 100
thermo_style custom step temp press
thermo_modify flush yes
run 10000
